p edge 155 1308 119
e 1 9
e 1 16
e 1 18
e 1 41
e 1 44
e 1 54
e 1 56
e 1 57
e 1 73
e 1 80
e 1 93
e 1 110
e 1 117
e 1 120
e 1 130
e 1 143
e 1 146
e 1 149
e 2 6
e 2 45
e 2 53
e 2 65
e 2 70
e 2 86
e 2 92
e 2 102
e 2 136
e 2 145
e 3 15
e 3 18
e 3 35
e 3 39
e 3 45
e 3 46
e 3 49
e 3 54
e 3 58
e 3 60
e 3 65
e 3 71
e 3 81
e 3 91
e 3 93
e 3 100
e 3 107
e 3 115
e 3 117
e 3 126
e 3 128
e 3 152
e 4 9
e 4 18
e 4 21
e 4 27
e 4 29
e 4 38
e 4 46
e 4 48
e 4 57
e 4 62
e 4 69
e 4 79
e 4 89
e 4 109
e 4 113
e 4 115
e 4 116
e 4 124
e 4 147
e 5 9
e 5 17
e 5 24
e 5 35
e 5 38
e 5 56
e 5 107
e 5 108
e 5 119
e 5 127
e 5 135
e 5 136
e 5 140
e 5 153
e 5 154
e 6 24
e 6 35
e 6 40
e 6 51
e 6 78
e 6 85
e 6 88
e 6 104
e 6 120
e 6 121
e 6 124
e 6 138
e 6 145
e 6 149
e 7 19
e 7 26
e 7 33
e 7 36
e 7 38
e 7 40
e 7 46
e 7 49
e 7 54
e 7 57
e 7 68
e 7 71
e 7 76
e 7 95
e 7 97
e 7 99
e 7 107
e 7 108
e 7 109
e 7 110
e 7 126
e 7 129
e 8 9
e 8 37
e 8 44
e 8 47
e 8 50
e 8 51
e 8 55
e 8 66
e 8 73
e 8 85
e 8 90
e 8 91
e 9 13
e 9 19
e 9 50
e 9 58
e 9 60
e 9 69
e 9 70
e 9 86
e 9 116
e 9 120
e 9 125
e 9 132
e 9 134
e 9 144
e 10 12
e 10 20
e 10 24
e 10 49
e 10 54
e 10 62
e 10 69
e 10 95
e 10 117
e 10 125
e 10 128
e 10 129
e 10 149
e 11 32
e 11 39
e 11 40
e 11 71
e 11 73
e 11 82
e 11 90
e 11 101
e 11 106
e 11 111
e 11 114
e 11 122
e 11 128
e 12 15
e 12 67
e 12 80
e 12 90
e 12 94
e 12 109
e 12 112
e 12 115
e 12 118
e 12 120
e 12 121
e 12 134
e 12 140
e 12 153
e 13 15
e 13 16
e 13 17
e 13 44
e 13 53
e 13 63
e 13 74
e 13 77
e 13 81
e 13 91
e 13 125
e 13 141
e 13 154
e 14 36
e 14 41
e 14 60
e 14 72
e 14 77
e 14 81
e 14 87
e 14 95
e 14 102
e 14 104
e 14 108
e 14 110
e 14 119
e 14 122
e 14 130
e 15 29
e 15 30
e 15 34
e 15 44
e 15 45
e 15 61
e 15 66
e 15 72
e 15 84
e 15 86
e 15 93
e 15 104
e 15 113
e 15 116
e 15 131
e 15 155
e 16 22
e 16 36
e 16 48
e 16 52
e 16 63
e 16 64
e 16 68
e 16 73
e 16 77
e 16 95
e 16 96
e 16 105
e 16 116
e 16 121
e 16 128
e 16 132
e 16 137
e 16 139
e 16 150
e 17 45
e 17 50
e 17 55
e 17 60
e 17 62
e 17 88
e 17 103
e 17 109
e 17 114
e 17 133
e 17 135
e 17 148
e 17 153
e 18 24
e 18 27
e 18 36
e 18 51
e 18 68
e 18 83
e 18 102
e 18 105
e 18 111
e 18 116
e 18 134
e 19 20
e 19 23
e 19 40
e 19 45
e 19 55
e 19 61
e 19 72
e 19 76
e 19 78
e 19 82
e 19 96
e 19 113
e 19 116
e 19 128
e 19 130
e 20 29
e 20 32
e 20 33
e 20 43
e 20 56
e 20 72
e 20 76
e 20 83
e 20 113
e 20 121
e 20 128
e 20 132
e 20 136
e 20 149
e 20 152
e 20 153
e 21 27
e 21 31
e 21 35
e 21 58
e 21 63
e 21 65
e 21 90
e 21 91
e 21 108
e 21 112
e 21 114
e 21 128
e 21 133
e 21 134
e 21 135
e 21 140
e 22 31
e 22 34
e 22 45
e 22 46
e 22 51
e 22 67
e 22 80
e 22 86
e 22 106
e 22 126
e 22 132
e 22 135
e 22 151
e 22 152
e 22 153
e 23 37
e 23 66
e 23 73
e 23 76
e 23 83
e 23 84
e 23 92
e 23 100
e 23 108
e 23 111
e 23 122
e 23 133
e 23 147
e 24 34
e 24 35
e 24 53
e 24 61
e 24 65
e 24 71
e 24 74
e 24 77
e 24 79
e 24 140
e 24 152
e 25 32
e 25 38
e 25 52
e 25 54
e 25 59
e 25 67
e 25 74
e 25 76
e 25 86
e 25 113
e 25 117
e 25 121
e 25 124
e 25 126
e 25 132
e 25 154
e 26 27
e 26 33
e 26 34
e 26 40
e 26 62
e 26 64
e 26 107
e 26 108
e 26 112
e 26 113
e 26 119
e 26 126
e 26 137
e 26 138
e 27 30
e 27 35
e 27 38
e 27 43
e 27 45
e 27 50
e 27 57
e 27 119
e 27 120
e 27 126
e 27 130
e 27 134
e 27 140
e 27 151
e 27 153
e 28 36
e 28 37
e 28 42
e 28 44
e 28 46
e 28 56
e 28 58
e 28 66
e 28 73
e 28 75
e 28 79
e 28 91
e 28 101
e 28 115
e 28 121
e 28 128
e 28 149
e 29 35
e 29 38
e 29 41
e 29 45
e 29 53
e 29 71
e 29 73
e 29 91
e 29 94
e 29 98
e 29 112
e 29 116
e 29 118
e 29 123
e 29 124
e 29 125
e 29 128
e 29 136
e 29 141
e 29 147
e 29 149
e 30 37
e 30 41
e 30 43
e 30 63
e 30 64
e 30 65
e 30 74
e 30 88
e 30 90
e 30 108
e 30 116
e 30 125
e 30 127
e 30 132
e 31 34
e 31 37
e 31 44
e 31 66
e 31 69
e 31 88
e 31 112
e 31 116
e 31 133
e 31 135
e 31 140
e 31 141
e 31 149
e 31 151
e 31 155
e 32 48
e 32 51
e 32 60
e 32 74
e 32 95
e 32 128
e 32 131
e 32 136
e 32 152
e 33 43
e 33 47
e 33 80
e 33 102
e 33 112
e 33 122
e 33 130
e 33 143
e 33 154
e 34 44
e 34 63
e 34 64
e 34 75
e 34 77
e 34 83
e 34 93
e 34 100
e 34 111
e 34 114
e 34 117
e 34 141
e 34 142
e 34 146
e 34 152
e 35 40
e 35 61
e 35 65
e 35 69
e 35 71
e 35 76
e 35 79
e 35 87
e 35 100
e 35 103
e 35 112
e 35 117
e 35 119
e 35 144
e 35 152
e 36 51
e 36 59
e 36 69
e 36 89
e 36 96
e 36 101
e 36 103
e 36 106
e 36 113
e 36 122
e 36 131
e 36 138
e 36 143
e 36 148
e 36 155
e 37 40
e 37 41
e 37 44
e 37 53
e 37 54
e 37 64
e 37 79
e 37 83
e 37 115
e 37 117
e 37 119
e 37 123
e 37 134
e 37 142
e 37 143
e 37 152
e 38 42
e 38 63
e 38 92
e 38 100
e 38 107
e 38 133
e 38 134
e 38 137
e 38 144
e 38 149
e 39 47
e 39 58
e 39 59
e 39 66
e 39 74
e 39 77
e 39 84
e 39 86
e 39 98
e 39 102
e 39 107
e 39 127
e 39 139
e 39 142
e 39 145
e 39 146
e 39 153
e 40 44
e 40 83
e 40 84
e 40 97
e 40 123
e 40 127
e 40 133
e 40 137
e 40 152
e 41 43
e 41 46
e 41 53
e 41 68
e 41 81
e 41 82
e 41 105
e 41 113
e 41 114
e 41 117
e 41 122
e 41 125
e 41 141
e 42 56
e 42 59
e 42 67
e 42 76
e 42 77
e 42 89
e 42 93
e 42 109
e 42 123
e 42 128
e 42 130
e 42 150
e 42 151
e 43 50
e 43 64
e 43 84
e 43 86
e 43 96
e 43 106
e 43 113
e 43 118
e 43 123
e 43 129
e 43 130
e 43 147
e 44 52
e 44 74
e 44 81
e 44 91
e 44 98
e 44 106
e 44 133
e 44 137
e 44 152
e 45 58
e 45 60
e 45 68
e 45 82
e 45 86
e 45 89
e 45 95
e 45 97
e 45 103
e 45 108
e 45 119
e 45 127
e 45 128
e 45 153
e 46 54
e 46 62
e 46 101
e 46 105
e 46 123
e 46 129
e 46 134
e 46 142
e 46 153
e 47 70
e 47 75
e 47 77
e 47 100
e 47 106
e 47 118
e 47 121
e 47 141
e 48 51
e 48 54
e 48 62
e 48 64
e 48 79
e 48 88
e 48 95
e 48 96
e 48 101
e 48 102
e 48 107
e 48 114
e 48 115
e 48 124
e 48 125
e 48 131
e 48 142
e 48 144
e 48 146
e 49 51
e 49 55
e 49 72
e 49 80
e 49 85
e 49 89
e 49 95
e 49 97
e 49 125
e 49 126
e 49 135
e 49 141
e 49 148
e 50 51
e 50 72
e 50 110
e 50 129
e 50 134
e 50 140
e 50 142
e 50 143
e 50 151
e 51 56
e 51 67
e 51 68
e 51 75
e 51 79
e 51 103
e 51 116
e 51 119
e 51 122
e 51 128
e 51 144
e 51 148
e 52 55
e 52 63
e 52 70
e 52 76
e 52 90
e 52 107
e 52 119
e 52 120
e 52 133
e 52 134
e 53 59
e 53 65
e 53 68
e 53 76
e 53 86
e 53 92
e 53 99
e 53 100
e 53 110
e 53 113
e 53 115
e 53 119
e 53 128
e 53 131
e 53 142
e 53 150
e 53 152
e 53 155
e 54 59
e 54 60
e 54 79
e 54 80
e 54 100
e 54 108
e 54 109
e 54 114
e 54 122
e 54 136
e 54 155
e 55 70
e 55 83
e 55 87
e 55 91
e 55 118
e 55 127
e 55 129
e 55 131
e 55 138
e 56 58
e 56 59
e 56 61
e 56 67
e 56 87
e 56 104
e 56 112
e 56 114
e 56 125
e 56 130
e 56 145
e 56 153
e 57 58
e 57 62
e 57 64
e 57 67
e 57 68
e 57 81
e 57 82
e 57 97
e 57 107
e 57 111
e 57 114
e 57 121
e 57 123
e 57 125
e 57 132
e 57 133
e 57 144
e 57 150
e 58 60
e 58 69
e 58 70
e 58 76
e 58 93
e 58 139
e 58 143
e 58 144
e 58 146
e 58 154
e 59 60
e 59 61
e 59 62
e 59 64
e 59 73
e 59 74
e 59 87
e 59 91
e 59 99
e 59 128
e 59 133
e 59 137
e 59 147
e 59 149
e 59 152
e 60 75
e 60 84
e 60 98
e 60 107
e 60 132
e 60 144
e 61 64
e 61 74
e 61 75
e 61 81
e 61 82
e 61 88
e 61 90
e 61 99
e 61 104
e 61 116
e 61 144
e 61 147
e 61 151
e 61 153
e 62 65
e 62 66
e 62 75
e 62 80
e 62 86
e 62 92
e 62 94
e 62 98
e 62 109
e 62 117
e 62 121
e 62 137
e 62 140
e 62 142
e 63 68
e 63 83
e 63 89
e 63 95
e 63 108
e 63 135
e 63 149
e 63 150
e 64 66
e 64 68
e 64 84
e 64 94
e 64 107
e 64 116
e 64 124
e 64 125
e 64 126
e 64 137
e 64 149
e 65 68
e 65 70
e 65 91
e 65 98
e 65 99
e 65 118
e 65 121
e 65 125
e 65 138
e 65 143
e 66 72
e 66 90
e 66 105
e 66 108
e 66 121
e 66 133
e 66 135
e 66 136
e 66 141
e 66 150
e 66 151
e 67 71
e 67 82
e 67 88
e 67 98
e 67 105
e 67 114
e 67 121
e 67 126
e 67 129
e 67 138
e 67 147
e 67 153
e 67 155
e 68 70
e 68 80
e 68 83
e 68 87
e 68 88
e 68 91
e 68 94
e 68 100
e 68 130
e 68 139
e 68 141
e 68 147
e 69 71
e 69 79
e 69 82
e 69 93
e 69 111
e 69 128
e 69 135
e 69 143
e 69 146
e 69 153
e 70 77
e 70 84
e 70 85
e 70 94
e 70 103
e 70 113
e 70 116
e 70 118
e 70 133
e 70 139
e 70 142
e 70 145
e 71 79
e 71 83
e 71 94
e 71 103
e 71 122
e 71 130
e 71 132
e 71 133
e 71 139
e 71 149
e 72 75
e 72 98
e 72 146
e 72 148
e 72 155
e 73 110
e 73 116
e 73 117
e 73 121
e 73 122
e 73 134
e 73 136
e 73 147
e 74 77
e 74 79
e 74 80
e 74 86
e 74 89
e 74 120
e 74 124
e 74 152
e 75 79
e 75 98
e 75 105
e 75 114
e 75 128
e 75 130
e 75 140
e 75 151
e 76 96
e 76 135
e 76 137
e 77 78
e 77 85
e 77 86
e 77 118
e 77 122
e 77 140
e 77 149
e 78 91
e 78 110
e 78 118
e 78 119
e 79 100
e 79 108
e 79 111
e 79 146
e 80 102
e 80 111
e 80 117
e 81 89
e 81 94
e 81 95
e 81 104
e 81 113
e 81 116
e 81 121
e 81 130
e 81 132
e 81 133
e 81 135
e 81 142
e 81 152
e 82 89
e 82 91
e 82 93
e 82 98
e 82 107
e 82 112
e 82 123
e 82 133
e 82 139
e 82 150
e 82 154
e 83 132
e 83 134
e 84 85
e 84 96
e 84 99
e 84 109
e 84 115
e 84 117
e 84 129
e 84 153
e 84 155
e 85 99
e 85 100
e 85 121
e 85 123
e 85 138
e 85 145
e 85 150
e 86 135
e 86 144
e 87 109
e 87 118
e 87 136
e 87 137
e 87 138
e 88 105
e 88 106
e 88 120
e 88 125
e 88 134
e 88 137
e 88 144
e 88 154
e 88 155
e 89 93
e 89 109
e 89 116
e 89 118
e 89 132
e 89 142
e 89 145
e 89 151
e 90 95
e 90 121
e 90 122
e 90 124
e 90 126
e 90 127
e 90 136
e 90 140
e 90 146
e 91 98
e 91 104
e 91 109
e 91 111
e 91 132
e 91 142
e 92 94
e 92 105
e 92 120
e 92 140
e 92 151
e 92 152
e 93 100
e 93 107
e 93 112
e 93 135
e 94 98
e 94 105
e 94 110
e 94 111
e 94 119
e 94 135
e 94 136
e 94 138
e 94 145
e 94 154
e 95 106
e 95 113
e 95 119
e 95 121
e 95 123
e 95 138
e 95 147
e 96 104
e 96 106
e 96 109
e 96 120
e 96 124
e 96 126
e 96 132
e 96 149
e 96 150
e 97 98
e 97 108
e 97 122
e 97 126
e 97 127
e 97 133
e 97 141
e 97 143
e 97 149
e 98 103
e 98 108
e 98 111
e 98 114
e 98 140
e 98 144
e 99 101
e 99 107
e 99 115
e 99 126
e 100 101
e 100 108
e 100 115
e 100 128
e 100 132
e 100 148
e 100 152
e 100 155
e 101 115
e 101 122
e 101 125
e 101 129
e 101 134
e 101 151
e 102 106
e 102 109
e 102 120
e 102 122
e 102 128
e 103 107
e 103 137
e 103 145
e 103 149
e 104 109
e 104 120
e 104 145
e 104 152
e 105 107
e 105 109
e 105 135
e 105 137
e 105 139
e 105 151
e 105 155
e 106 111
e 106 127
e 106 135
e 106 136
e 106 155
e 107 134
e 107 143
e 107 149
e 107 153
e 108 115
e 108 122
e 108 125
e 108 134
e 108 144
e 109 112
e 109 115
e 109 116
e 109 122
e 109 127
e 109 145
e 109 146
e 109 154
e 110 123
e 110 130
e 110 145
e 110 153
e 111 117
e 111 135
e 111 149
e 112 146
e 112 155
e 113 114
e 113 117
e 113 121
e 113 127
e 113 132
e 113 139
e 113 145
e 113 152
e 113 153
e 114 117
e 114 121
e 114 127
e 114 133
e 114 134
e 114 149
e 115 120
e 115 122
e 115 126
e 115 135
e 116 126
e 116 127
e 116 139
e 116 141
e 116 144
e 116 152
e 117 123
e 117 128
e 117 129
e 117 134
e 117 139
e 118 133
e 118 138
e 118 139
e 118 141
e 118 150
e 119 120
e 119 126
e 119 150
e 120 124
e 120 129
e 121 122
e 121 124
e 121 131
e 121 153
e 122 123
e 122 132
e 122 140
e 122 143
e 122 147
e 123 128
e 123 140
e 124 125
e 124 129
e 124 136
e 124 138
e 124 144
e 124 152
e 125 126
e 125 153
e 126 133
e 127 130
e 127 136
e 127 141
e 127 155
e 128 141
e 129 132
e 129 135
e 129 148
e 130 136
e 130 141
e 130 151
e 131 137
e 131 138
e 132 137
e 132 140
e 132 150
e 132 153
e 133 140
e 134 135
e 134 141
e 134 147
e 135 139
e 135 143
e 135 153
e 136 139
e 136 155
e 137 145
e 137 147
e 138 146
e 139 141
e 139 151
e 139 152
e 140 148
e 141 153
e 143 147
e 144 152
e 145 147
e 145 148
e 145 155
e 146 152
e 147 151
e 148 155
e 149 152
e 150 154
e 152 154
e 152 155
